
Log started (V11.0.0) Mon May 19 20:53:39 2008

Tried aggregator 1 time.
Reduced MIP has 550 rows, 25001 columns, and 50050 nonzeros.
Presolve time =    0.19 sec.
Clique table members: 500.
MIP emphasis: balance optimality and feasibility.
MIP search method: dynamic search.
Parallel mode: none, using 1 thread.
Root relaxation solution time =    1.98 sec.

        Nodes                                         Cuts/
   Node  Left     Objective  IInf  Best Integer     Best Node    ItCnt     Gap

*     0+    0                        30025.0000      280.6510     1060   99.07%
*     0+    0                          349.0000      280.6510     1060   19.58%
      0     0      281.0000    96      349.0000      Fract: 6     1115   19.48%
*     0+    0                          316.0000      281.0000     1115   11.08%
      0     0      281.0139   104      316.0000       Cuts: 5     1536   11.07%
*     0+    0                          309.0000      281.0139     1536    9.06%
      0     0      284.5222   104      309.0000      Cuts: 16     2308    7.92%
      0     0      284.7861   103      309.0000    MIRcuts: 2     2358    7.84%
*     0+    0                          308.0000      284.7861     2358    7.54%
*     0+    0                          306.0000      284.7861     2358    6.93%
*     0+    0                          301.0000      284.7861     2358    5.39%
      0     2      284.7861   103      301.0000      284.7861     2358    5.39%
*    10+    8                          300.0000      284.8665     2536    5.04%
    100    58      285.0000    81      300.0000      284.8665    22329    5.04%
    200   111      285.0023   107      300.0000      284.8665    47729    5.04%
    300   163      285.0107   107      300.0000      284.8665    75962    5.04%
    400   214      285.0107   114      300.0000      284.8665   106750    5.04%
    500   266      285.0000    83      300.0000      284.8665   137116    5.04%
*   511+  180                          296.0000      292.3635   143267    1.23%
    600   199      295.0000    27      296.0000      293.0000   144891    1.01%
    700   205    infeasible            296.0000      293.0000   148157    1.01%
    800   195      295.0000    11      296.0000      293.0000   154792    1.01%
    900   257      295.0000    12      296.0000      293.0000   156957    1.01%
   1000   275      295.0000    26      296.0000      293.0000   159864    1.01%
Elapsed time = 344.45 sec. (tree size =  4.38 MB, solutions = 9)
   1100   303      295.0000    37      296.0000      293.0000   163552    1.01%
   1200   337      295.0000    17      296.0000      293.0000   169109    1.01%
   1300   411      295.0000    37      296.0000      293.0000   172584    1.01%
   1400   477      295.0000    38      296.0000      293.0000   177005    1.01%
   1500   514      295.0000    35      296.0000      293.0000   179843    1.01%
   1600   569      295.0000    35      296.0000      293.0000   182458    1.01%
   1700   621      295.0000    43      296.0000      293.0000   185817    1.01%
   1800   687      295.0000    51      296.0000      293.0000   189979    1.01%
   1900   725    infeasible            296.0000      293.0000   192361    1.01%
   2000   757      295.0000    33      296.0000      293.0000   195149    1.01%
Elapsed time = 427.08 sec. (tree size = 12.41 MB, solutions = 9)
*  2059    29      integral     0      295.0000      293.0000   196640    0.68%

Cover cuts applied:  98
Mixed integer rounding cuts applied:  3
Gomory fractional cuts applied:  3

Solution pool: 10 solutions saved.

MIP - Integer optimal solution:  Objective = 2.9500000000e+002
Solution time =  437.14 sec.  Iterations = 203584  Nodes = 2089


Incumbent solution
Variable Name           Solution Value
Cmax                        295.000000
X_1_17                        1.000000
X_2_10                        1.000000
X_3_6                         1.000000
X_4_5                         1.000000
X_5_1                         1.000000
X_6_30                        1.000000
X_7_43                        1.000000
X_8_36                        1.000000
X_9_32                        1.000000
X_10_15                       1.000000
X_11_7                        1.000000
X_12_36                       1.000000
X_13_23                       1.000000
X_14_30                       1.000000
X_15_10                       1.000000
X_16_41                       1.000000
X_17_10                       1.000000
X_18_17                       1.000000
X_19_41                       1.000000
X_20_33                       1.000000
X_21_13                       1.000000
X_22_15                       1.000000
X_23_41                       1.000000
X_24_3                        1.000000
X_25_10                       1.000000
X_26_36                       1.000000
X_27_33                       1.000000
X_28_32                       1.000000
X_29_1                        1.000000
X_30_5                        1.000000
X_31_1                        1.000000
X_32_36                       1.000000
X_33_41                       1.000000
X_34_27                       1.000000
X_35_7                        1.000000
X_36_50                       1.000000
X_37_10                       1.000000
X_38_45                       1.000000
X_39_10                       1.000000
X_40_41                       1.000000
X_41_10                       1.000000
X_42_36                       1.000000
X_43_10                       1.000000
X_44_10                       1.000000
X_45_10                       1.000000
X_46_6                        1.000000
X_47_47                       1.000000
X_48_13                       1.000000
X_49_10                       1.000000
X_50_36                       1.000000
X_51_23                       1.000000
X_52_41                       1.000000
X_53_27                       1.000000
X_54_19                       1.000000
X_55_25                       1.000000
X_56_36                       1.000000
X_57_10                       1.000000
X_58_10                       1.000000
X_59_43                       1.000000
X_60_10                       1.000000
X_61_24                       1.000000
X_62_43                       1.000000
X_63_41                       1.000000
X_64_34                       1.000000
X_65_36                       1.000000
X_66_18                       1.000000
X_67_42                       1.000000
X_68_36                       1.000000
X_69_13                       1.000000
X_70_36                       1.000000
X_71_21                       1.000000
X_72_41                       1.000000
X_73_16                       1.000000
X_74_44                       1.000000
X_75_10                       1.000000
X_76_22                       1.000000
X_77_36                       1.000000
X_78_10                       1.000000
X_79_5                        1.000000
X_80_1                        1.000000
X_81_41                       1.000000
X_82_41                       1.000000
X_83_36                       1.000000
X_84_45                       1.000000
X_85_17                       1.000000
X_86_41                       1.000000
X_87_36                       1.000000
X_88_36                       1.000000
X_89_13                       1.000000
X_90_1                        1.000000
X_91_10                       1.000000
X_92_35                       1.000000
X_93_41                       1.000000
X_94_8                        1.000000
X_95_7                        1.000000
X_96_36                       1.000000
X_97_47                       1.000000
X_98_42                       1.000000
X_99_10                       1.000000
X_100_49                      1.000000
X_101_10                      1.000000
X_102_39                      1.000000
X_103_1                       1.000000
X_104_36                      1.000000
X_105_3                       1.000000
X_106_20                      1.000000
X_107_10                      1.000000
X_108_45                      1.000000
X_109_49                      1.000000
X_110_21                      1.000000
X_111_38                      1.000000
X_112_35                      1.000000
X_113_1                       1.000000
X_114_17                      1.000000
X_115_41                      1.000000
X_116_8                       1.000000
X_117_10                      1.000000
X_118_41                      1.000000
X_119_1                       1.000000
X_120_33                      1.000000
X_121_26                      1.000000
X_122_17                      1.000000
X_123_17                      1.000000
X_124_32                      1.000000
X_125_10                      1.000000
X_126_14                      1.000000
X_127_48                      1.000000
X_128_16                      1.000000
X_129_36                      1.000000
X_130_27                      1.000000
X_131_10                      1.000000
X_132_31                      1.000000
X_133_26                      1.000000
X_134_41                      1.000000
X_135_48                      1.000000
X_136_33                      1.000000
X_137_48                      1.000000
X_138_36                      1.000000
X_139_44                      1.000000
X_140_33                      1.000000
X_141_42                      1.000000
X_142_4                       1.000000
X_143_5                       1.000000
X_144_26                      1.000000
X_145_36                      1.000000
X_146_43                      1.000000
X_147_41                      1.000000
X_148_2                       1.000000
X_149_1                       1.000000
X_150_36                      1.000000
X_151_47                      1.000000
X_152_28                      1.000000
X_153_36                      1.000000
X_154_43                      1.000000
X_155_40                      1.000000
X_156_41                      1.000000
X_157_13                      1.000000
X_158_2                       1.000000
X_159_40                      1.000000
X_160_42                      1.000000
X_161_1                       1.000000
X_162_38                      1.000000
X_163_33                      1.000000
X_164_36                      1.000000
X_165_40                      1.000000
X_166_41                      1.000000
X_167_36                      1.000000
X_168_10                      1.000000
X_169_46                      1.000000
X_170_36                      1.000000
X_171_36                      1.000000
X_172_3                       1.000000
X_173_7                       1.000000
X_174_14                      1.000000
X_175_1                       1.000000
X_176_12                      1.000000
X_177_41                      1.000000
X_178_36                      1.000000
X_179_36                      1.000000
X_180_10                      1.000000
X_181_36                      1.000000
X_182_10                      1.000000
X_183_47                      1.000000
X_184_10                      1.000000
X_185_26                      1.000000
X_186_10                      1.000000
X_187_36                      1.000000
X_188_36                      1.000000
X_189_43                      1.000000
X_190_29                      1.000000
X_191_1                       1.000000
X_192_36                      1.000000
X_193_39                      1.000000
X_194_41                      1.000000
X_195_5                       1.000000
X_196_33                      1.000000
X_197_12                      1.000000
X_198_10                      1.000000
X_199_10                      1.000000
X_200_10                      1.000000
X_201_36                      1.000000
X_202_10                      1.000000
X_203_10                      1.000000
X_204_3                       1.000000
X_205_42                      1.000000
X_206_10                      1.000000
X_207_44                      1.000000
X_208_36                      1.000000
X_209_32                      1.000000
X_210_36                      1.000000
X_211_36                      1.000000
X_212_46                      1.000000
X_213_10                      1.000000
X_214_10                      1.000000
X_215_17                      1.000000
X_216_43                      1.000000
X_217_23                      1.000000
X_218_36                      1.000000
X_219_4                       1.000000
X_220_28                      1.000000
X_221_10                      1.000000
X_222_10                      1.000000
X_223_41                      1.000000
X_224_17                      1.000000
X_225_24                      1.000000
X_226_33                      1.000000
X_227_1                       1.000000
X_228_36                      1.000000
X_229_12                      1.000000
X_230_31                      1.000000
X_231_10                      1.000000
X_232_1                       1.000000
X_233_41                      1.000000
X_234_50                      1.000000
X_235_36                      1.000000
X_236_17                      1.000000
X_237_35                      1.000000
X_238_23                      1.000000
X_239_21                      1.000000
X_240_32                      1.000000
X_241_21                      1.000000
X_242_36                      1.000000
X_243_48                      1.000000
X_244_22                      1.000000
X_245_47                      1.000000
X_246_10                      1.000000
X_247_36                      1.000000
X_248_11                      1.000000
X_249_10                      1.000000
X_250_1                       1.000000
X_251_36                      1.000000
X_252_39                      1.000000
X_253_15                      1.000000
X_254_41                      1.000000
X_255_37                      1.000000
X_256_27                      1.000000
X_257_35                      1.000000
X_258_36                      1.000000
X_259_38                      1.000000
X_260_41                      1.000000
X_261_1                       1.000000
X_262_4                       1.000000
X_263_9                       1.000000
X_264_41                      1.000000
X_265_7                       1.000000
X_266_19                      1.000000
X_267_5                       1.000000
X_268_50                      1.000000
X_269_4                       1.000000
X_270_17                      1.000000
X_271_15                      1.000000
X_272_10                      1.000000
X_273_40                      1.000000
X_274_48                      1.000000
X_275_33                      1.000000
X_276_24                      1.000000
X_277_36                      1.000000
X_278_2                       1.000000
X_279_17                      1.000000
X_280_38                      1.000000
X_281_10                      1.000000
X_282_36                      1.000000
X_283_3                       1.000000
X_284_33                      1.000000
X_285_40                      1.000000
X_286_11                      1.000000
X_287_21                      1.000000
X_288_26                      1.000000
X_289_16                      1.000000
X_290_5                       1.000000
X_291_36                      1.000000
X_292_36                      1.000000
X_293_17                      1.000000
X_294_26                      1.000000
X_295_1                       1.000000
X_296_43                      1.000000
X_297_7                       1.000000
X_298_36                      1.000000
X_299_41                      1.000000
X_300_31                      1.000000
X_301_36                      1.000000
X_302_17                      1.000000
X_303_10                      1.000000
X_304_45                      1.000000
X_305_50                      1.000000
X_306_42                      1.000000
X_307_36                      1.000000
X_308_5                       1.000000
X_309_10                      1.000000
X_310_4                       1.000000
X_311_10                      1.000000
X_312_36                      1.000000
X_313_36                      1.000000
X_314_19                      1.000000
X_315_25                      1.000000
X_316_44                      1.000000
X_317_10                      1.000000
X_318_8                       1.000000
X_319_18                      1.000000
X_320_36                      1.000000
X_321_41                      1.000000
X_322_10                      1.000000
X_323_28                      1.000000
X_324_23                      1.000000
X_325_36                      1.000000
X_326_36                      1.000000
X_327_36                      1.000000
X_328_42                      1.000000
X_329_10                      1.000000
X_330_41                      1.000000
X_331_41                      1.000000
X_332_36                      1.000000
X_333_1                       1.000000
X_334_36                      1.000000
X_335_10                      1.000000
X_336_47                      1.000000
X_337_39                      1.000000
X_338_15                      1.000000
X_339_19                      1.000000
X_340_27                      1.000000
X_341_1                       1.000000
X_342_10                      1.000000
X_343_21                      1.000000
X_344_33                      1.000000
X_345_36                      1.000000
X_346_36                      1.000000
X_347_47                      1.000000
X_348_7                       1.000000
X_349_1                       1.000000
X_350_41                      1.000000
X_351_22                      1.000000
X_352_36                      1.000000
X_353_20                      1.000000
X_354_4                       1.000000
X_355_49                      1.000000
X_356_17                      1.000000
X_357_36                      1.000000
X_358_26                      1.000000
X_359_2                       1.000000
X_360_1                       1.000000
X_361_43                      1.000000
X_362_37                      1.000000
X_363_10                      1.000000
X_364_4                       1.000000
X_365_36                      1.000000
X_366_12                      1.000000
X_367_10                      1.000000
X_368_23                      1.000000
X_369_5                       1.000000
X_370_37                      1.000000
X_371_40                      1.000000
X_372_21                      1.000000
X_373_40                      1.000000
X_374_50                      1.000000
X_375_49                      1.000000
X_376_10                      1.000000
X_377_10                      1.000000
X_378_45                      1.000000
X_379_19                      1.000000
X_380_21                      1.000000
X_381_14                      1.000000
X_382_1                       1.000000
X_383_33                      1.000000
X_384_36                      1.000000
X_385_40                      1.000000
X_386_41                      1.000000
X_387_5                       1.000000
X_388_36                      1.000000
X_389_9                       1.000000
X_390_45                      1.000000
X_391_37                      1.000000
X_392_36                      1.000000
X_393_4                       1.000000
X_394_36                      1.000000
X_395_36                      1.000000
X_396_33                      1.000000
X_397_1                       1.000000
X_398_21                      1.000000
X_399_47                      1.000000
X_400_1                       1.000000
X_401_10                      1.000000
X_402_36                      1.000000
X_403_26                      1.000000
X_404_10                      1.000000
X_405_39                      1.000000
X_406_45                      1.000000
X_407_36                      1.000000
X_408_36                      1.000000
X_409_36                      1.000000
X_410_41                      1.000000
X_411_42                      1.000000
X_412_36                      1.000000
X_413_11                      1.000000
X_414_20                      1.000000
X_415_2                       1.000000
X_416_36                      1.000000
X_417_44                      1.000000
X_418_44                      1.000000
X_419_36                      1.000000
X_420_36                      1.000000
X_421_18                      1.000000
X_422_36                      1.000000
X_423_36                      1.000000
X_424_36                      1.000000
X_425_10                      1.000000
X_426_22                      1.000000
X_427_33                      1.000000
X_428_27                      1.000000
X_429_10                      1.000000
X_430_36                      1.000000
X_431_10                      1.000000
X_432_32                      1.000000
X_433_10                      1.000000
X_434_23                      1.000000
X_435_49                      1.000000
X_436_13                      1.000000
X_437_36                      1.000000
X_438_26                      1.000000
X_439_1                       1.000000
X_440_36                      1.000000
X_441_40                      1.000000
X_442_12                      1.000000
X_443_24                      1.000000
X_444_3                       1.000000
X_445_29                      1.000000
X_446_2                       1.000000
X_447_36                      1.000000
X_448_37                      1.000000
X_449_44                      1.000000
X_450_23                      1.000000
X_451_36                      1.000000
X_452_36                      1.000000
X_453_36                      1.000000
X_454_10                      1.000000
X_455_41                      1.000000
X_456_3                       1.000000
X_457_41                      1.000000
X_458_6                       1.000000
X_459_36                      1.000000
X_460_34                      1.000000
X_461_46                      1.000000
X_462_13                      1.000000
X_463_47                      1.000000
X_464_12                      1.000000
X_465_29                      1.000000
X_466_36                      1.000000
X_467_34                      1.000000
X_468_36                      1.000000
X_469_19                      1.000000
X_470_45                      1.000000
X_471_10                      1.000000
X_472_41                      1.000000
X_473_1                       1.000000
X_474_10                      1.000000
X_475_26                      1.000000
X_476_46                      1.000000
X_477_36                      1.000000
X_478_4                       1.000000
X_479_36                      1.000000
X_480_10                      1.000000
X_481_47                      1.000000
X_482_10                      1.000000
X_483_10                      1.000000
X_484_36                      1.000000
X_485_10                      1.000000
X_486_30                      1.000000
X_487_48                      1.000000
X_488_25                      1.000000
X_489_36                      1.000000
X_490_41                      1.000000
X_491_36                      1.000000
X_492_41                      1.000000
X_493_41                      1.000000
X_494_44                      1.000000
X_495_9                       1.000000
X_496_42                      1.000000
X_497_15                      1.000000
X_498_19                      1.000000
X_499_43                      1.000000
X_500_10                      1.000000
All other variables in the range 1-25001 are 0.
